(set-info :smt-lib-version 2.6)
(set-info :category "crafted")
(set-logic QF_FFA)
(define-sort FF0 () (_ FiniteField 52435875175126190479447740508185965837690552500527637822603658699938581184513))
(declare-fun x13 () Bool)
(declare-fun x12 () Bool)
(declare-fun x11 () Bool)
(declare-fun x10 () Bool)
(declare-fun x9 () Bool)
(declare-fun x8 () Bool)
(declare-fun x7 () Bool)
(declare-fun x6 () Bool)
(declare-fun x5 () Bool)
(declare-fun x4 () Bool)
(declare-fun x3 () Bool)
(declare-fun x2 () Bool)
(declare-fun x1 () Bool)
(declare-fun x0 () Bool)
(declare-fun out () FF0)
(declare-fun _26 () FF0)
(declare-fun _5 () FF0)
(declare-fun _25 () FF0)
(declare-fun _4 () FF0)
(declare-fun _24 () FF0)
(declare-fun _3 () FF0)
(declare-fun _23 () FF0)
(declare-fun _2 () FF0)
(declare-fun _22 () FF0)
(declare-fun _13 () FF0)
(declare-fun _21 () FF0)
(declare-fun _12 () FF0)
(declare-fun _20 () FF0)
(declare-fun _11 () FF0)
(declare-fun _19 () FF0)
(declare-fun _10 () FF0)
(declare-fun _18 () FF0)
(declare-fun _9 () FF0)
(declare-fun _17 () FF0)
(declare-fun _8 () FF0)
(declare-fun _16 () FF0)
(declare-fun _7 () FF0)
(declare-fun _15 () FF0)
(declare-fun _6 () FF0)
(declare-fun _14 () FF0)
(declare-fun _1 () FF0)
(declare-fun _0 () FF0)
(assert 
  (let ((let0 x13))
  (let ((let1 x12))
  (let ((let2 x11))
  (let ((let3 x10))
  (let ((let4 x9))
  (let ((let5 x8))
  (let ((let6 x7))
  (let ((let7 x6))
  (let ((let8 x5))
  (let ((let9 x4))
  (let ((let10 x3))
  (let ((let11 x2))
  (let ((let12 x1))
  (let ((let13 x0))
  (let ((let14 (and let13 let12 let11 let10 let9 let8 let7 let6 let5 let4 let3 let2 let1 let0)))
  (let ((let15 out))
  (let ((let16 (as ff1 FF0)))
  (let ((let17 (= let16 let15)))
  (let ((let18 (= let17 let14)))
  (let ((let19 (as ff0 FF0)))
  (let ((let20 (= let19 let15)))
  (let ((let21 (or let17 let20)))
  (let ((let22 (and let21 let18)))
  (let ((let23 _26))
  (let ((let24 _5))
  (let ((let25 _25))
  (let ((let26 (ff.mul let25 let24)))
  (let ((let27 (= let26 let23)))
  (let ((let28 _4))
  (let ((let29 _24))
  (let ((let30 (ff.mul let29 let28)))
  (let ((let31 (= let30 let25)))
  (let ((let32 _3))
  (let ((let33 _23))
  (let ((let34 (ff.mul let33 let32)))
  (let ((let35 (= let34 let29)))
  (let ((let36 _2))
  (let ((let37 _22))
  (let ((let38 (ff.mul let37 let36)))
  (let ((let39 (= let38 let33)))
  (let ((let40 _13))
  (let ((let41 _21))
  (let ((let42 (ff.mul let41 let40)))
  (let ((let43 (= let42 let37)))
  (let ((let44 _12))
  (let ((let45 _20))
  (let ((let46 (ff.mul let45 let44)))
  (let ((let47 (= let46 let41)))
  (let ((let48 _11))
  (let ((let49 _19))
  (let ((let50 (ff.mul let49 let48)))
  (let ((let51 (= let50 let45)))
  (let ((let52 _10))
  (let ((let53 _18))
  (let ((let54 (ff.mul let53 let52)))
  (let ((let55 (= let54 let49)))
  (let ((let56 _9))
  (let ((let57 _17))
  (let ((let58 (ff.mul let57 let56)))
  (let ((let59 (= let58 let53)))
  (let ((let60 _8))
  (let ((let61 _16))
  (let ((let62 (ff.mul let61 let60)))
  (let ((let63 (= let62 let57)))
  (let ((let64 _7))
  (let ((let65 _15))
  (let ((let66 (ff.mul let65 let64)))
  (let ((let67 (= let66 let61)))
  (let ((let68 _6))
  (let ((let69 _14))
  (let ((let70 (ff.mul let69 let68)))
  (let ((let71 (= let70 let65)))
  (let ((let72 _1))
  (let ((let73 _0))
  (let ((let74 (ff.mul let73 let72)))
  (let ((let75 (= let74 let69)))
  (let ((let76 (ff.mul let40 let40)))
  (let ((let77 (= let76 let40)))
  (let ((let78 (ff.mul let44 let44)))
  (let ((let79 (= let78 let44)))
  (let ((let80 (ff.mul let48 let48)))
  (let ((let81 (= let80 let48)))
  (let ((let82 (ff.mul let52 let52)))
  (let ((let83 (= let82 let52)))
  (let ((let84 (ff.mul let56 let56)))
  (let ((let85 (= let84 let56)))
  (let ((let86 (ff.mul let60 let60)))
  (let ((let87 (= let86 let60)))
  (let ((let88 (ff.mul let64 let64)))
  (let ((let89 (= let88 let64)))
  (let ((let90 (ff.mul let68 let68)))
  (let ((let91 (= let90 let68)))
  (let ((let92 (ff.mul let24 let24)))
  (let ((let93 (= let92 let24)))
  (let ((let94 (ff.mul let28 let28)))
  (let ((let95 (= let94 let28)))
  (let ((let96 (ff.mul let32 let32)))
  (let ((let97 (= let96 let32)))
  (let ((let98 (ff.mul let36 let36)))
  (let ((let99 (= let98 let36)))
  (let ((let100 (ff.mul let72 let72)))
  (let ((let101 (= let100 let72)))
  (let ((let102 (ff.mul let73 let73)))
  (let ((let103 (= let102 let73)))
  (let ((let104 (and let103 let101 let99 let97 let95 let93 let91 let89 let87 let85 let83 let81 let79 let77 let75 let71 let67 let63 let59 let55 let51 let47 let43 let39 let35 let31 let27)))
  (let ((let105 (ite let10 let16 let19)))
  (let ((let106 (= let64 let105)))
  (let ((let107 (ite let12 let16 let19)))
  (let ((let108 (= let72 let107)))
  (let ((let109 (ite let8 let16 let19)))
  (let ((let110 (= let56 let109)))
  (let ((let111 (ite let2 let16 let19)))
  (let ((let112 (= let32 let111)))
  (let ((let113 (ite let13 let16 let19)))
  (let ((let114 (= let73 let113)))
  (let ((let115 (ite let0 let16 let19)))
  (let ((let116 (= let24 let115)))
  (let ((let117 (ite let3 let16 let19)))
  (let ((let118 (= let36 let117)))
  (let ((let119 (ite let6 let16 let19)))
  (let ((let120 (= let48 let119)))
  (let ((let121 (ite let9 let16 let19)))
  (let ((let122 (= let60 let121)))
  (let ((let123 (ite let11 let16 let19)))
  (let ((let124 (= let68 let123)))
  (let ((let125 (ite let1 let16 let19)))
  (let ((let126 (= let28 let125)))
  (let ((let127 (ite let4 let16 let19)))
  (let ((let128 (= let40 let127)))
  (let ((let129 (ite let5 let16 let19)))
  (let ((let130 (= let44 let129)))
  (let ((let131 (ite let7 let16 let19)))
  (let ((let132 (= let52 let131)))
  (let ((let133 (and let132 let130 let128 let126 let124 let122 let120 let118 let116 let114 let112 let110 let108 let106)))
  (let ((let134 (and let133 let104)))
  (let ((let135 (=> let134 let22)))
  (let ((let136 (not let135)))
  let136
)))))))))))))))))))))))))))))))))))))))))))))))))))))))))))))))))))))))))))))))))))))))))))))))))))))))))))))))))))))))))))))))))))))))))
)
(check-sat)
